c 
c G(k,n,p) graph
c graph gen seed     : 356
c number of vertices : 25
c max number of edges: 500
c number of classes  : 2
c edge density       : 0.800000
c edge probability   : 1.600000
c data structure     : dense
c
c           Graph Stats
c number of vertices  : 25
c nonisolated vertices: 25
c number of edges     : 156
c edge density        : 0.520000
c max degree          : 13
c avg degree          : 12.48
c min degree          : 12
p col 25 156
e 1 2
e 1 4
e 1 6
e 1 8
e 1 11
e 1 12
e 1 13
e 1 16
e 1 18
e 1 23
e 1 24
e 1 25
e 2 4
e 2 6
e 2 8
e 2 11
e 2 12
e 2 13
e 2 16
e 2 18
e 2 23
e 2 24
e 2 25
e 3 5
e 3 7
e 3 9
e 3 10
e 3 14
e 3 15
e 3 17
e 3 19
e 3 20
e 3 21
e 3 22
e 4 6
e 4 8
e 4 11
e 4 12
e 4 13
e 4 16
e 4 18
e 4 23
e 4 24
e 4 25
e 5 7
e 5 9
e 5 10
e 5 14
e 5 15
e 5 17
e 5 19
e 5 20
e 5 21
e 5 22
e 6 8
e 6 11
e 6 12
e 6 13
e 6 16
e 6 18
e 6 23
e 6 24
e 6 25
e 7 9
e 7 10
e 7 14
e 7 15
e 7 17
e 7 19
e 7 20
e 7 21
e 7 22
e 8 11
e 8 12
e 8 13
e 8 16
e 8 18
e 8 23
e 8 24
e 8 25
e 9 10
e 9 14
e 9 15
e 9 17
e 9 19
e 9 20
e 9 21
e 9 22
e 10 14
e 10 15
e 10 17
e 10 19
e 10 20
e 10 21
e 10 22
e 11 12
e 11 13
e 11 16
e 11 18
e 11 23
e 11 24
e 11 25
e 12 13
e 12 16
e 12 18
e 12 23
e 12 24
e 12 25
e 13 16
e 13 18
e 13 23
e 13 24
e 13 25
e 14 15
e 14 17
e 14 19
e 14 20
e 14 21
e 14 22
e 15 17
e 15 19
e 15 20
e 15 21
e 15 22
e 16 18
e 16 23
e 16 24
e 16 25
e 17 19
e 17 20
e 17 21
e 17 22
e 18 23
e 18 24
e 18 25
e 19 20
e 19 21
e 19 22
e 20 21
e 20 22
e 21 22
e 23 24
e 23 25
e 24 25
